c Created with the Wolfram Language : www.wolfram.com
c 
p edge 90 608
e 1 2
e 1 3
e 3 4
e 3 5
e 4 6
e 4 7
e 1 8
e 3 8
e 6 8
e 4 10
e 5 10
e 6 10
e 2 11
e 4 11
e 5 11
e 6 11
e 11 12
e 3 13
e 5 13
e 6 13
e 8 13
e 13 15
e 13 16
e 5 17
e 7 17
e 10 17
e 15 17
e 10 18
e 10 19
e 13 19
e 15 19
e 18 19
e 3 20
e 5 20
e 6 20
e 1 21
e 18 21
e 19 21
e 1 22
e 15 22
e 19 22
e 4 23
e 6 23
e 16 23
e 19 23
e 21 23
e 8 24
e 16 24
e 17 24
e 14 25
e 18 25
e 22 25
e 9 26
e 9 27
e 12 27
e 23 27
e 4 28
e 9 28
e 13 28
e 20 28
e 22 28
e 24 28
e 1 29
e 2 29
e 21 29
e 24 29
e 1 30
e 5 30
e 16 30
e 25 30
e 27 30
e 4 31
e 6 31
e 11 31
e 12 31
e 13 31
e 14 31
e 17 31
e 21 31
e 23 31
e 26 31
e 27 31
e 3 32
e 9 32
e 12 32
e 14 32
e 17 32
e 18 32
e 20 32
e 23 32
e 24 32
e 29 32
e 2 33
e 3 33
e 6 33
e 10 33
e 12 33
e 16 33
e 27 33
e 30 33
e 32 33
e 6 34
e 15 34
e 18 34
e 23 34
e 1 35
e 11 35
e 14 35
e 21 35
e 27 35
e 32 35
e 27 36
e 13 37
e 26 37
e 32 37
e 1 38
e 5 38
e 7 38
e 9 38
e 15 38
e 18 38
e 21 38
e 32 38
e 4 39
e 19 39
e 32 39
e 3 40
e 11 40
e 12 40
e 13 40
e 15 40
e 34 40
e 35 40
e 39 40
e 4 41
e 6 41
e 20 41
e 28 41
e 29 41
e 31 41
e 38 41
e 5 42
e 7 42
e 10 42
e 15 42
e 19 42
e 7 43
e 8 43
e 14 43
e 23 43
e 24 43
e 31 43
e 37 43
e 9 44
e 13 44
e 18 44
e 20 44
e 21 44
e 33 44
e 34 44
e 39 44
e 8 45
e 12 45
e 13 45
e 23 45
e 29 45
e 30 45
e 40 45
e 7 46
e 8 46
e 12 46
e 15 46
e 16 46
e 17 46
e 34 46
e 35 46
e 39 46
e 41 46
e 1 47
e 8 47
e 12 47
e 19 47
e 28 47
e 31 47
e 35 47
e 10 48
e 21 48
e 24 48
e 26 48
e 28 48
e 29 48
e 30 48
e 40 48
e 1 49
e 10 49
e 13 49
e 15 49
e 20 49
e 21 49
e 23 49
e 29 49
e 37 49
e 39 49
e 44 49
e 48 49
e 3 50
e 6 50
e 12 50
e 15 50
e 17 50
e 21 50
e 28 50
e 30 50
e 34 50
e 41 50
e 44 50
e 11 51
e 14 51
e 15 51
e 21 51
e 27 51
e 6 52
e 13 52
e 25 52
e 26 52
e 38 52
e 47 52
e 10 53
e 12 53
e 18 53
e 37 53
e 41 53
e 49 53
e 6 54
e 13 54
e 20 54
e 23 54
e 33 54
e 45 54
e 2 55
e 17 55
e 30 55
e 34 55
e 45 55
e 49 55
e 6 56
e 33 56
e 37 56
e 44 56
e 7 57
e 13 57
e 14 57
e 15 57
e 21 57
e 27 57
e 46 57
e 53 57
e 54 57
e 13 58
e 15 58
e 24 58
e 32 58
e 36 58
e 40 58
e 6 59
e 8 59
e 14 59
e 16 59
e 20 59
e 24 59
e 35 59
e 41 59
e 44 59
e 2 60
e 24 60
e 37 60
e 45 60
e 47 60
e 53 60
e 57 60
e 15 61
e 18 61
e 21 61
e 22 61
e 28 61
e 36 61
e 37 61
e 39 61
e 43 61
e 55 61
e 28 62
e 33 62
e 37 62
e 39 62
e 55 62
e 59 62
e 60 62
e 3 63
e 5 63
e 25 63
e 29 63
e 35 63
e 39 63
e 46 63
e 58 63
e 32 64
e 37 64
e 52 64
e 58 64
e 12 65
e 25 65
e 26 65
e 30 65
e 33 65
e 36 65
e 44 65
e 45 65
e 49 65
e 51 65
e 55 65
e 59 65
e 61 65
e 1 66
e 2 66
e 3 66
e 6 66
e 18 66
e 23 66
e 28 66
e 34 66
e 40 66
e 47 66
e 48 66
e 56 66
e 59 66
e 62 66
e 64 66
e 26 67
e 27 67
e 39 67
e 44 67
e 49 67
e 5 68
e 9 68
e 11 68
e 14 68
e 22 68
e 25 68
e 34 68
e 36 68
e 38 68
e 47 68
e 60 68
e 9 69
e 13 69
e 40 69
e 44 69
e 57 69
e 63 69
e 14 70
e 25 70
e 26 70
e 41 70
e 51 70
e 53 70
e 59 70
e 60 70
e 63 70
e 3 71
e 8 71
e 10 71
e 22 71
e 55 71
e 64 71
e 67 71
e 3 72
e 8 72
e 11 72
e 13 72
e 14 72
e 18 72
e 20 72
e 21 72
e 22 72
e 25 72
e 33 72
e 46 72
e 52 72
e 67 72
e 70 72
e 14 73
e 22 73
e 26 73
e 28 73
e 29 73
e 40 73
e 11 74
e 14 74
e 15 74
e 17 74
e 19 74
e 27 74
e 28 74
e 32 74
e 43 74
e 45 74
e 53 74
e 70 74
e 1 75
e 2 75
e 3 75
e 20 75
e 21 75
e 32 75
e 48 75
e 50 75
e 54 75
e 57 75
e 4 76
e 10 76
e 13 76
e 16 76
e 17 76
e 49 76
e 51 76
e 57 76
e 60 76
e 73 76
e 1 77
e 2 77
e 9 77
e 13 77
e 14 77
e 27 77
e 28 77
e 31 77
e 34 77
e 41 77
e 42 77
e 49 77
e 60 77
e 76 77
e 4 78
e 5 78
e 20 78
e 21 78
e 22 78
e 35 78
e 38 78
e 42 78
e 49 78
e 51 78
e 58 78
e 64 78
e 71 78
e 16 79
e 19 79
e 20 79
e 28 79
e 36 79
e 37 79
e 41 79
e 48 79
e 53 79
e 57 79
e 61 79
e 63 79
e 65 79
e 74 79
e 76 79
e 3 80
e 9 80
e 14 80
e 15 80
e 21 80
e 33 80
e 45 80
e 54 80
e 55 80
e 57 80
e 62 80
e 64 80
e 67 80
e 68 80
e 5 81
e 7 81
e 9 81
e 15 81
e 25 81
e 37 81
e 43 81
e 53 81
e 54 81
e 67 81
e 72 81
e 8 82
e 32 82
e 55 82
e 57 82
e 58 82
e 59 82
e 69 82
e 76 82
e 4 83
e 6 83
e 15 83
e 16 83
e 21 83
e 36 83
e 49 83
e 63 83
e 66 83
e 70 83
e 71 83
e 81 83
e 1 84
e 4 84
e 7 84
e 9 84
e 11 84
e 13 84
e 47 84
e 79 84
e 80 84
e 82 84
e 83 84
e 1 85
e 4 85
e 7 85
e 17 85
e 23 85
e 32 85
e 34 85
e 35 85
e 38 85
e 39 85
e 45 85
e 46 85
e 47 85
e 49 85
e 56 85
e 61 85
e 65 85
e 69 85
e 21 86
e 41 86
e 45 86
e 46 86
e 49 86
e 50 86
e 54 86
e 60 86
e 66 86
e 69 86
e 73 86
e 74 86
e 75 86
e 1 87
e 33 87
e 38 87
e 41 87
e 46 87
e 52 87
e 63 87
e 70 87
e 76 87
e 85 87
e 5 88
e 21 88
e 25 88
e 39 88
e 47 88
e 69 88
e 79 88
e 80 88
e 81 88
e 86 88
e 12 89
e 16 89
e 23 89
e 24 89
e 35 89
e 36 89
e 41 89
e 49 89
e 51 89
e 57 89
e 59 89
e 60 89
e 64 89
e 82 89
e 83 89
e 9 90
e 11 90
e 14 90
e 24 90
e 28 90
e 34 90
e 43 90
e 54 90
e 56 90
e 58 90
e 61 90
e 73 90
e 76 90
e 78 90
e 83 90
e 86 90
